GLPSOL--GLPK LP/MIP Solver 5.0
Parameter(s) specified in the command line:
 --lp ../modeles/4_54.lp --log 4_54.log
Reading problem data from '../modeles/4_54.lp'...
233 rows, 440 columns, 1524 non-zeros
216 integer variables, all of which are binary
683 lines were read
GLPK Integer Optimizer 5.0
233 rows, 440 columns, 1524 non-zeros
216 integer variables, all of which are binary
Preprocessing...
216 constraint coefficient(s) were reduced
233 rows, 436 columns, 1520 non-zeros
216 integer variables, all of which are binary
Scaling...
 A: min|aij| =  5.487e-03  max|aij| =  4.000e+00  ratio =  7.290e+02
GM: min|aij| =  1.925e-01  max|aij| =  5.196e+00  ratio =  2.700e+01
EQ: min|aij| =  3.704e-02  max|aij| =  1.000e+00  ratio =  2.700e+01
2N: min|aij| =  3.125e-02  max|aij| =  1.653e+00  ratio =  5.290e+01
Constructing initial basis...
Size of triangular part is 233
Solving LP relaxation...
GLPK Simplex Optimizer 5.0
233 rows, 436 columns, 1520 non-zeros
      0: obj =   8.000000000e+00 inf =   1.950e+01 (9)
     35: obj =   5.609084652e-02 inf =   0.000e+00 (0)
*   109: obj =  -1.995726496e+00 inf =   5.551e-17 (0)
OPTIMAL LP SOLUTION FOUND
Integer optimization begins...
Long-step dual simplex will be used
+   109: mip =     not found yet >=              -inf        (1; 0)
+   112: >>>>>  -1.995726496e+00 >=  -1.995726496e+00 < 0.1% (4; 0)
+   112: mip =  -1.995726496e+00 >=     tree is empty   0.0% (0; 7)
INTEGER OPTIMAL SOLUTION FOUND
Time used:   0.0 secs
Memory used: 0.7 Mb (707420 bytes)
